(declare-const BAV1 Bool)
(declare-const GEN4 Int)
(declare-const GEN3 Int)
(declare-const GEN2 Int)
(declare-const GEN1 (_ BitVec 8))
(set-info :source "Handcrafted by C.M. Wintersteiger")
(assert (not (= GEN1 ((_ fp.to_ubv 8) RTP (_ +oo 5 11)))))
(assert (= BAV1 (= GEN1 ((_ fp.to_ubv 8) RTP (_ +oo 5 11)))))
(check-sat)
(get-model)
(check-sat-using smt)
(exit)